# Objective value = 36
WA1n 0
WA1p 0
WA2n 1
WA2p 0
WB1n 0
WB1p 0
WB2n 0
WB2p 1
WC1n 1
WC1p 0
WD1n 1
WD1p 0
WD2n 1
WD2p 0
WE1n 1
WE1p 0
WE2n 1
WE2p 0
WF1n 4
WF1p 0
WG1n 0
WG1p 5
WG2n 0
WG2p 1
WH1n 9
WH1p 0
WH2n 1
WH2p 0
WT1n 3
WT1p 0
5 7
a 0
b 0
c 0
d 1
e 0
f 0
g 0
h 0
i 0
j 0
k 1
l 1
m 0
n 0
o 0
